(set-logic QF_S)
(declare-fun var0 () Int)
(declare-fun var1 () Int)
(declare-fun var2 () Int)
(declare-fun var3 () Int)
(declare-fun var4 () String)
(declare-fun var5 () String)
(assert (> var0 var1))
(assert (<= var2 var3))
(assert (not (> var2 var0)))
(assert (> (str.len var4) (str.indexof "A" var5 var3)))
(check-sat)